language Essence 1.3

letting bot_end be [26, 1500, 1528, 1548, 1527, 1526, 1400, 1, 1499, 25, 20, 49, 29; int(1..13)]
letting bot_start be [1424, 44, 49, 151, 18, 147, 22, 1422, 5, 1524, 1500, 1425, 1498; int(1..13)]
letting buffer_col be 2
letting buffer_row be 2
letting corridor_size be 1
letting n_shelves_col be 7
letting n_shelves_row be 29
letting shelf_col_size be 2
letting shelf_row_size be 1
